pr/lpsolve-precompiler/example/params/3
V1 = 10000
V2 = 1000

C1 = 5
C2 = 4
C3 = 3

A1 = 14
A2 = 6
A3 = 1
A4 = 2

M = 10000000

-----

